41 364
1 6 15 21 22 23 25 31 36 38 40
0 2 3 5 6 7 8 12 14 16 18 20 25 29 30 33 34 35 40
1 4 7 9 11 12 14 16 17 19 20 24 26 27 30 32 33 35 37
1 4 6 8 10 12 17 21 22 24 26 27 28 31 32 35 40
2 3 5 7 17 19 21 23 27 28 30 32 33 37 40
1 4 7 12 16 23 24 25 35 36 37
0 1 3 9 10 15 17 18 22 23 24 27 28 30 32 35 36 38
1 2 4 5 9 11 12 13 18 19 21 22 23 24 26 28 29 32 34 37 38 39 40
1 3 9 10 11 17 20 22 28 30 31 33 34 35 37 40
2 6 7 8 10 11 12 14 15 16 17 18 23 24 26 30 32 33 35 36 37
3 6 8 9 12 13 15 17 18 20 21 22 25 26 27 33 34 38 40
2 7 8 9 12 14 17 20 23 24 25 29 31 33 34
1 2 3 5 7 9 10 11 14 17 20 22 30 32 34
7 10 16 17 22 24 28 30 31
1 2 9 11 12 15 17 18 22 27 28 30 33 38 39
0 6 9 10 14 17 18 19 21 22 23 24 25 26 27 29 30 33 38 39
1 2 5 9 13 17 20 22 24 25 26 27 32 37 38
2 3 4 6 8 9 10 11 12 13 14 15 16 18 19 22 23 25 27 28 29 32 34 37 38 40
1 6 7 9 10 14 15 17 20 22 23 24 26 27 29 30 31 33 34 36 37 40
2 4 7 15 17 22 24 28 30 32 33 35 39
1 2 8 10 11 12 16 18 21 22 23 27 30 31 32 34 39
0 3 4 7 10 15 20 22 23 25 26 27 28 29 30 31 32 33 34 35 37 38 40
0 3 6 7 8 10 12 13 14 15 16 17 18 19 20 21 23 24 28 29 31 34 38 39 40
0 4 5 6 7 9 11 15 17 18 20 21 22 27 29 32 38 40
2 3 5 6 7 9 11 13 15 16 18 19 22 26 27 30 31 33 36 37 38 39 40
0 1 5 10 11 15 16 17 21 30 31 32 35 38 39 40
2 3 7 9 10 15 16 18 21 24 28 29 31 36 38 40
2 3 4 6 10 14 15 16 17 18 20 21 23 24 28 29 31 33 34 37 39 40
3 4 6 7 8 13 14 17 19 21 22 26 27 33 34 35 39 40
1 7 11 15 17 18 21 22 23 26 27 30 31 34 37 38
1 2 4 6 8 9 12 13 14 15 18 19 20 21 24 25 29 34 35 38
0 3 8 11 13 18 20 21 22 24 25 26 27 29 32 36 38
2 3 4 6 7 9 12 16 17 19 20 21 23 25 31 33 34 35 37 38
1 2 4 8 9 10 11 14 15 18 19 21 24 27 28 32 37 38 40
1 7 8 10 11 12 17 18 20 21 22 27 28 29 30 32 36 37 39 40
1 2 3 5 6 8 9 19 21 25 28 30 32 37 38 40
0 5 6 9 18 24 26 31 34
2 4 5 7 8 9 16 17 18 21 24 27 29 32 33 34 35 38
0 6 7 10 14 15 16 17 21 22 23 24 25 26 29 30 31 32 33 35 37 39
7 14 15 19 20 22 24 25 27 28 34 38 40
0 1 3 4 7 8 10 17 18 21 22 23 24 25 26 27 28 33 34 35 39
